row=7;
Board=[|5,0,6,0,0,8,3,10,2,9|6,0,0,0,7,0,0,0,1,0|0,4,9,0,8,10,0,0,0,0|0,0,10,3,7,6,0,8,1,2|0,2,6,4,9,5,1,7,0,10|4,7,0,10,2,0,9,0,1,6|10,2,9,6,0,7,1,4,0,5|];
bottom=[259200,39200,699840,86400,56448,100800,432,201600,126,216000]